p cnf 349
-6 -24
-7 -34
-8 -46
-9 -62
-10 -74
-11 -85
-12 -101
-13 -113
-14 -124
-15 9
-15 -10
-9 10 15
-16 -11
-16 15
11 -15 16
-17 -9
-17 10
9 -10 17
-18 11
-18 17
-11 -17 18
-19 6
-19 -18
-6 18 19
-20 -16
-20 19
16 -19 20
-21 -16
-21 -20
16 20 21
-22 1
-22 -21
-1 21 22
-23 -1
-23 6
1 -6 23
-24 -22
-24 -23
22 23 24
-25 12
-25 -13
-12 13 25
-26 -14
-26 25
14 -25 26
-27 -12
-27 13
12 -13 27
-28 14
-28 27
-14 -27 28
-29 7
-29 -28
-7 28 29
-30 -26
-30 29
26 -29 30
-31 -26
-31 -30
26 30 31
-32 2
-32 -31
-2 31 32
-33 -2
-33 7
2 -7 33
-34 -32
-34 -33
32 33 34
-35 -11
-35 17
11 -17 35
-36 1
-36 35
-1 -35 36
-37 -14
-37 27
14 -27 37
-38 2
-38 37
-2 -37 38
-39 36
-39 38
-36 -38 39
-40 -36
-40 -38
36 38 40
-41 8
-41 40
-8 -40 41
-42 36
-42 -40
-36 40 42
-43 -41
-43 -42
41 42 43
-44 5
-44 39
-5 -39 44
-45 -39
-45 -43
39 43 45
-46 -44
-46 -45
44 45 46
-47 -3
-47 9
3 -9 47
-48 9
-48 -47
-9 47 48
-49 -10
-49 -48
10 48 49
-50 -17
-50 -49
17 49 50
-51 -7
-51 9
7 -9 51
-52 9
-52 -51
-9 51 52
-53 3
-53 -9
-3 9 53
-54 10
-54 -52
-10 52 54
-55 -10
-55 53
10 -53 55
-56 -54
-56 -55
54 55 56
-57 11
-57 -50
-11 50 57
-58 -11
-58 -56
11 56 58
-59 -57
-59 -58
57 58 59
-60 1
-60 -59
-1 59 60
-61 -1
-61 9
1 -9 61
-62 -60
-62 -61
60 61 62
-63 3
-63 9
-3 -9 63
-64 8
-64 -9
-8 9 64
-65 -63
-65 -64
63 64 65
-66 -10
-66 -65
10 65 66
-67 -17
-67 -66
17 66 67
-68 -15
-68 -17
15 17 68
-69 11
-69 -67
-11 67 69
-70 -11
-70 -68
11 68 70
-71 -69
-71 -70
69 70 71
-72 1
-72 -71
-1 71 72
-73 -1
-73 10
1 -10 73
-74 -72
-74 -73
72 73 74
-75 -8
-75 -9
8 9 75
-76 -9
-76 -75
9 75 76
-77 -10
-77 -76
10 76 77
-78 -17
-78 -77
17 77 78
-79 9
-79 10
-9 -10 79
-80 11
-80 -78
-11 78 80
-81 -11
-81 79
11 -79 81
-82 -80
-82 -81
80 81 82
-83 1
-83 -82
-1 82 83
-84 -1
-84 11
1 -11 84
-85 -83
-85 -84
83 84 85
-86 -4
-86 12
4 -12 86
-87 12
-87 -86
-12 86 87
-88 -13
-88 -87
13 87 88
-89 -27
-89 -88
27 88 89
-90 -6
-90 12
6 -12 90
-91 12
-91 -90
-12 90 91
-92 4
-92 -12
-4 12 92
-93 13
-93 -91
-13 91 93
-94 -13
-94 92
13 -92 94
-95 -93
-95 -94
93 94 95
-96 14
-96 -89
-14 89 96
-97 -14
-97 -95
14 95 97
-98 -96
-98 -97
96 97 98
-99 2
-99 -98
-2 98 99
-100 -2
-100 12
2 -12 100
-101 -99
-101 -100
99 100 101
-102 4
-102 12
-4 -12 102
-103 -8
-103 -12
8 12 103
-104 -102
-104 -103
102 103 104
-105 -13
-105 -104
13 104 105
-106 -27
-106 -105
27 105 106
-107 -25
-107 -27
25 27 107
-108 14
-108 -106
-14 106 108
-109 -14
-109 -107
14 107 109
-110 -108
-110 -109
108 109 110
-111 2
-111 -110
-2 110 111
-112 -2
-112 13
2 -13 112
-113 -111
-113 -112
111 112 113
-114 8
-114 -12
-8 12 114
-115 -12
-115 -114
12 114 115
-116 -13
-116 -115
13 115 116
-117 -27
-117 -116
27 116 117
-118 12
-118 13
-12 -13 118
-119 14
-119 -117
-14 117 119
-120 -14
-120 118
14 -118 120
-121 -119
-121 -120
119 120 121
-122 2
-122 -121
-2 121 122
-123 -2
-123 14
2 -14 123
-124 -122
-124 -123
122 123 124
-125 11
-125 15
-11 -15 125
-126 14
-126 25
-14 -25 126
-127 125
-127 126
-125 -126 127
127
